1600 3120
1 2 4
1 41 1
2 3 3
2 42 1
3 4 5
3 43 5
4 5 3
4 44 2
5 6 2
5 45 1
6 7 1
6 46 1
7 8 4
7 47 3
8 9 3
8 48 3
9 10 5
9 49 5
10 11 1
10 50 3
11 12 2
11 51 2
12 13 5
12 52 3
13 14 4
13 53 1
14 15 5
14 54 1
15 16 4
15 55 3
16 17 4
16 56 4
17 18 4
17 57 5
18 19 3
18 58 5
19 20 1
19 59 4
20 21 1
20 60 3
21 22 3
21 61 1
22 23 3
22 62 5
23 24 4
23 63 2
24 25 2
24 64 3
25 26 1
25 65 2
26 27 5
26 66 2
27 28 1
27 67 1
28 29 4
28 68 4
29 30 2
29 69 2
30 31 1
30 70 3
31 32 4
31 71 5
32 33 3
32 72 5
33 34 1
33 73 1
34 35 5
34 74 4
35 36 5
35 75 3
36 37 3
36 76 2
37 38 3
37 77 4
38 39 3
38 78 3
39 40 4
39 79 1
40 80 3
41 42 1
41 81 4
42 43 1
42 82 2
43 44 2
43 83 4
44 45 4
44 84 5
45 46 5
45 85 4
46 47 5
46 86 4
47 48 4
47 87 4
48 49 3
48 88 5
49 50 2
49 89 3
50 51 1
50 90 2
51 52 1
51 91 5
52 53 2
52 92 3
53 54 2
53 93 4
54 55 1
54 94 2
55 56 4
55 95 2
56 57 5
56 96 3
57 58 3
57 97 4
58 59 5
58 98 4
59 60 1
59 99 2
60 61 3
60 100 2
61 62 3
61 101 1
62 63 4
62 102 5
63 64 3
63 103 4
64 65 1
64 104 2
65 66 3
65 105 1
66 67 3
66 106 1
67 68 4
67 107 3
68 69 5
68 108 5
69 70 1
69 109 4
70 71 4
70 110 4
71 72 5
71 111 1
72 73 4
72 112 5
73 74 1
73 113 5
74 75 5
74 114 1
75 76 1
75 115 4
76 77 3
76 116 1
77 78 5
77 117 5
78 79 3
78 118 5
79 80 2
79 119 2
80 120 4
81 82 3
81 121 1
82 83 5
82 122 2
83 84 4
83 123 4
84 85 5
84 124 5
85 86 2
85 125 5
86 87 4
86 126 5
87 88 3
87 127 2
88 89 1
88 128 1
89 90 4
89 129 5
90 91 2
90 130 5
91 92 4
91 131 4
92 93 3
92 132 2
93 94 3
93 133 4
94 95 5
94 134 5
95 96 2
95 135 5
96 97 2
96 136 4
97 98 4
97 137 4
98 99 5
98 138 1
99 100 3
99 139 4
100 101 5
100 140 4
101 102 4
101 141 3
102 103 5
102 142 5
103 104 5
103 143 1
104 105 1
104 144 3
105 106 3
105 145 3
106 107 3
106 146 4
107 108 4
107 147 4
108 109 4
108 148 5
109 110 3
109 149 2
110 111 4
110 150 3
111 112 1
111 151 2
112 113 5
112 152 3
113 114 2
113 153 3
114 115 1
114 154 3
115 116 4
115 155 1
116 117 3
116 156 3
117 118 1
117 157 1
118 119 1
118 158 3
119 120 1
119 159 5
120 160 4
121 122 2
121 161 2
122 123 2
122 162 3
123 124 2
123 163 1
124 125 1
124 164 1
125 126 1
125 165 5
126 127 3
126 166 4
127 128 3
127 167 2
128 129 1
128 168 4
129 130 4
129 169 4
130 131 4
130 170 4
131 132 5
131 171 3
132 133 4
132 172 2
133 134 4
133 173 1
134 135 3
134 174 5
135 136 2
135 175 1
136 137 2
136 176 5
137 138 4
137 177 2
138 139 5
138 178 3
139 140 4
139 179 2
140 141 2
140 180 5
141 142 4
141 181 2
142 143 1
142 182 3
143 144 4
143 183 4
144 145 4
144 184 5
145 146 2
145 185 2
146 147 2
146 186 3
147 148 5
147 187 3
148 149 1
148 188 3
149 150 1
149 189 1
150 151 5
150 190 3
151 152 5
151 191 5
152 153 5
152 192 2
153 154 2
153 193 5
154 155 1
154 194 5
155 156 2
155 195 3
156 157 2
156 196 5
157 158 3
157 197 5
158 159 3
158 198 2
159 160 4
159 199 5
160 200 2
161 162 1
161 201 1
162 163 3
162 202 5
163 164 4
163 203 4
164 165 1
164 204 1
165 166 2
165 205 4
166 167 3
166 206 2
167 168 2
167 207 1
168 169 4
168 208 5
169 170 2
169 209 1
170 171 2
170 210 4
171 172 1
171 211 2
172 173 2
172 212 3
173 174 1
173 213 2
174 175 4
174 214 5
175 176 5
175 215 1
176 177 3
176 216 3
177 178 2
177 217 3
178 179 5
178 218 1
179 180 4
179 219 4
180 181 5
180 220 4
181 182 2
181 221 4
182 183 5
182 222 2
183 184 3
183 223 3
184 185 2
184 224 4
185 186 2
185 225 3
186 187 5
186 226 3
187 188 5
187 227 5
188 189 2
188 228 1
189 190 2
189 229 3
190 191 1
190 230 3
191 192 4
191 231 4
192 193 3
192 232 5
193 194 3
193 233 1
194 195 3
194 234 5
195 196 3
195 235 3
196 197 2
196 236 1
197 198 5
197 237 3
198 199 1
198 238 4
199 200 5
199 239 4
200 240 2
201 202 1
201 241 1
202 203 1
202 242 5
203 204 2
203 243 2
204 205 4
204 244 2
205 206 3
205 245 5
206 207 5
206 246 4
207 208 1
207 247 3
208 209 3
208 248 5
209 210 3
209 249 4
210 211 3
210 250 5
211 212 5
211 251 3
212 213 3
212 252 4
213 214 5
213 253 1
214 215 4
214 254 1
215 216 2
215 255 2
216 217 5
216 256 1
217 218 1
217 257 2
218 219 2
218 258 2
219 220 4
219 259 4
220 221 3
220 260 5
221 222 1
221 261 4
222 223 3
222 262 3
223 224 2
223 263 3
224 225 4
224 264 4
225 226 4
225 265 1
226 227 1
226 266 3
227 228 4
227 267 2
228 229 1
228 268 5
229 230 5
229 269 5
230 231 4
230 270 5
231 232 3
231 271 3
232 233 3
232 272 1
233 234 5
233 273 4
234 235 1
234 274 1
235 236 3
235 275 3
236 237 1
236 276 4
237 238 4
237 277 1
238 239 5
238 278 4
239 240 3
239 279 4
240 280 4
241 242 2
241 281 5
242 243 4
242 282 2
243 244 4
243 283 2
244 245 2
244 284 1
245 246 1
245 285 1
246 247 2
246 286 2
247 248 2
247 287 2
248 249 2
248 288 4
249 250 1
249 289 4
250 251 5
250 290 2
251 252 3
251 291 2
252 253 4
252 292 2
253 254 1
253 293 5
254 255 1
254 294 2
255 256 4
255 295 2
256 257 5
256 296 4
257 258 1
257 297 4
258 259 1
258 298 3
259 260 2
259 299 2
260 261 2
260 300 2
261 262 5
261 301 5
262 263 5
262 302 5
263 264 5
263 303 3
264 265 2
264 304 3
265 266 3
265 305 3
266 267 2
266 306 2
267 268 1
267 307 4
268 269 2
268 308 3
269 270 4
269 309 1
270 271 5
270 310 4
271 272 3
271 311 2
272 273 5
272 312 4
273 274 3
273 313 5
274 275 4
274 314 5
275 276 2
275 315 3
276 277 5
276 316 3
277 278 5
277 317 2
278 279 3
278 318 1
279 280 3
279 319 4
280 320 3
281 282 5
281 321 3
282 283 3
282 322 5
283 284 5
283 323 3
284 285 5
284 324 1
285 286 4
285 325 4
286 287 4
286 326 2
287 288 5
287 327 1
288 289 5
288 328 4
289 290 2
289 329 2
290 291 3
290 330 5
291 292 1
291 331 2
292 293 4
292 332 4
293 294 2
293 333 4
294 295 2
294 334 2
295 296 2
295 335 3
296 297 2
296 336 3
297 298 5
297 337 1
298 299 4
298 338 5
299 300 4
299 339 5
300 301 4
300 340 3
301 302 3
301 341 3
302 303 5
302 342 1
303 304 4
303 343 3
304 305 1
304 344 3
305 306 2
305 345 5
306 307 4
306 346 1
307 308 1
307 347 5
308 309 2
308 348 5
309 310 3
309 349 5
310 311 5
310 350 1
311 312 3
311 351 5
312 313 4
312 352 4
313 314 5
313 353 4
314 315 2
314 354 1
315 316 3
315 355 2
316 317 2
316 356 4
317 318 1
317 357 1
318 319 2
318 358 1
319 320 4
319 359 3
320 360 4
321 322 4
321 361 4
322 323 4
322 362 1
323 324 2
323 363 1
324 325 4
324 364 1
325 326 5
325 365 2
326 327 2
326 366 2
327 328 2
327 367 5
328 329 4
328 368 4
329 330 1
329 369 5
330 331 3
330 370 3
331 332 2
331 371 4
332 333 2
332 372 1
333 334 2
333 373 2
334 335 2
334 374 1
335 336 3
335 375 2
336 337 2
336 376 3
337 338 2
337 377 1
338 339 5
338 378 4
339 340 1
339 379 3
340 341 5
340 380 4
341 342 1
341 381 1
342 343 5
342 382 5
343 344 2
343 383 4
344 345 3
344 384 5
345 346 2
345 385 5
346 347 2
346 386 1
347 348 5
347 387 4
348 349 4
348 388 4
349 350 4
349 389 3
350 351 3
350 390 1
351 352 3
351 391 3
352 353 1
352 392 3
353 354 2
353 393 2
354 355 1
354 394 2
355 356 2
355 395 5
356 357 1
356 396 5
357 358 2
357 397 3
358 359 2
358 398 2
359 360 5
359 399 2
360 400 1
361 362 1
361 401 4
362 363 5
362 402 3
363 364 5
363 403 2
364 365 1
364 404 2
365 366 2
365 405 5
366 367 2
366 406 4
367 368 5
367 407 1
368 369 1
368 408 2
369 370 2
369 409 4
370 371 3
370 410 1
371 372 3
371 411 2
372 373 4
372 412 4
373 374 3
373 413 3
374 375 4
374 414 2
375 376 1
375 415 1
376 377 3
376 416 1
377 378 1
377 417 5
378 379 5
378 418 3
379 380 1
379 419 1
380 381 4
380 420 5
381 382 4
381 421 4
382 383 5
382 422 5
383 384 5
383 423 3
384 385 5
384 424 2
385 386 3
385 425 4
386 387 1
386 426 2
387 388 3
387 427 2
388 389 5
388 428 4
389 390 3
389 429 5
390 391 2
390 430 1
391 392 3
391 431 1
392 393 3
392 432 1
393 394 3
393 433 1
394 395 3
394 434 3
395 396 4
395 435 5
396 397 1
396 436 3
397 398 1
397 437 1
398 399 1
398 438 2
399 400 3
399 439 3
400 440 4
401 402 4
401 441 4
402 403 2
402 442 2
403 404 4
403 443 4
404 405 2
404 444 3
405 406 3
405 445 2
406 407 1
406 446 3
407 408 3
407 447 3
408 409 3
408 448 1
409 410 4
409 449 1
410 411 1
410 450 5
411 412 1
411 451 4
412 413 4
412 452 5
413 414 5
413 453 5
414 415 4
414 454 1
415 416 3
415 455 1
416 417 2
416 456 3
417 418 3
417 457 5
418 419 4
418 458 3
419 420 4
419 459 4
420 421 1
420 460 3
421 422 3
421 461 2
422 423 4
422 462 1
423 424 1
423 463 1
424 425 2
424 464 2
425 426 3
425 465 4
426 427 4
426 466 4
427 428 2
427 467 5
428 429 4
428 468 3
429 430 1
429 469 5
430 431 1
430 470 4
431 432 2
431 471 1
432 433 3
432 472 2
433 434 3
433 473 4
434 435 3
434 474 4
435 436 2
435 475 5
436 437 4
436 476 4
437 438 4
437 477 4
438 439 2
438 478 1
439 440 4
439 479 5
440 480 3
441 442 4
441 481 4
442 443 1
442 482 1
443 444 5
443 483 3
444 445 4
444 484 5
445 446 4
445 485 5
446 447 3
446 486 2
447 448 5
447 487 3
448 449 3
448 488 2
449 450 1
449 489 1
450 451 1
450 490 4
451 452 5
451 491 3
452 453 3
452 492 4
453 454 4
453 493 5
454 455 3
454 494 2
455 456 1
455 495 2
456 457 3
456 496 1
457 458 1
457 497 2
458 459 3
458 498 3
459 460 2
459 499 4
460 461 1
460 500 4
461 462 2
461 501 3
462 463 4
462 502 4
463 464 2
463 503 1
464 465 1
464 504 4
465 466 3
465 505 3
466 467 1
466 506 1
467 468 4
467 507 5
468 469 2
468 508 4
469 470 3
469 509 3
470 471 2
470 510 1
471 472 5
471 511 4
472 473 2
472 512 4
473 474 3
473 513 1
474 475 1
474 514 5
475 476 2
475 515 1
476 477 2
476 516 4
477 478 2
477 517 4
478 479 4
478 518 3
479 480 2
479 519 2
480 520 4
481 482 1
481 521 1
482 483 2
482 522 1
483 484 1
483 523 1
484 485 5
484 524 5
485 486 2
485 525 5
486 487 5
486 526 4
487 488 2
487 527 5
488 489 2
488 528 5
489 490 4
489 529 5
490 491 5
490 530 1
491 492 4
491 531 4
492 493 3
492 532 3
493 494 5
493 533 2
494 495 4
494 534 2
495 496 4
495 535 4
496 497 5
496 536 5
497 498 1
497 537 3
498 499 1
498 538 4
499 500 2
499 539 3
500 501 2
500 540 2
501 502 4
501 541 4
502 503 5
502 542 5
503 504 2
503 543 4
504 505 4
504 544 4
505 506 1
505 545 1
506 507 2
506 546 4
507 508 5
507 547 2
508 509 4
508 548 1
509 510 5
509 549 2
510 511 1
510 550 2
511 512 3
511 551 4
512 513 4
512 552 5
513 514 2
513 553 2
514 515 1
514 554 4
515 516 2
515 555 3
516 517 5
516 556 3
517 518 4
517 557 1
518 519 2
518 558 2
519 520 4
519 559 2
520 560 2
521 522 5
521 561 5
522 523 4
522 562 1
523 524 1
523 563 2
524 525 5
524 564 4
525 526 2
525 565 5
526 527 3
526 566 4
527 528 1
527 567 3
528 529 3
528 568 1
529 530 4
529 569 2
530 531 2
530 570 2
531 532 5
531 571 4
532 533 1
532 572 5
533 534 2
533 573 4
534 535 5
534 574 3
535 536 4
535 575 4
536 537 5
536 576 4
537 538 5
537 577 1
538 539 5
538 578 1
539 540 4
539 579 2
540 541 3
540 580 2
541 542 5
541 581 4
542 543 2
542 582 1
543 544 4
543 583 4
544 545 3
544 584 1
545 546 4
545 585 2
546 547 5
546 586 3
547 548 5
547 587 3
548 549 5
548 588 3
549 550 2
549 589 5
550 551 3
550 590 2
551 552 1
551 591 1
552 553 4
552 592 2
553 554 1
553 593 2
554 555 5
554 594 1
555 556 1
555 595 3
556 557 4
556 596 4
557 558 3
557 597 2
558 559 1
558 598 2
559 560 1
559 599 5
560 600 2
561 562 4
561 601 5
562 563 2
562 602 1
563 564 4
563 603 5
564 565 4
564 604 4
565 566 2
565 605 4
566 567 3
566 606 4
567 568 2
567 607 4
568 569 3
568 608 1
569 570 4
569 609 3
570 571 4
570 610 2
571 572 3
571 611 2
572 573 3
572 612 1
573 574 5
573 613 2
574 575 1
574 614 1
575 576 5
575 615 4
576 577 1
576 616 3
577 578 4
577 617 2
578 579 3
578 618 4
579 580 3
579 619 5
580 581 3
580 620 1
581 582 1
581 621 5
582 583 3
582 622 1
583 584 3
583 623 3
584 585 2
584 624 1
585 586 5
585 625 5
586 587 2
586 626 1
587 588 4
587 627 2
588 589 2
588 628 2
589 590 4
589 629 1
590 591 2
590 630 1
591 592 5
591 631 2
592 593 2
592 632 4
593 594 1
593 633 2
594 595 5
594 634 1
595 596 3
595 635 4
596 597 5
596 636 2
597 598 3
597 637 3
598 599 2
598 638 5
599 600 2
599 639 1
600 640 3
601 602 1
601 641 1
602 603 5
602 642 5
603 604 4
603 643 2
604 605 4
604 644 2
605 606 3
605 645 3
606 607 5
606 646 2
607 608 2
607 647 2
608 609 4
608 648 1
609 610 1
609 649 4
610 611 5
610 650 5
611 612 2
611 651 1
612 613 2
612 652 5
613 614 2
613 653 5
614 615 3
614 654 3
615 616 5
615 655 2
616 617 2
616 656 4
617 618 3
617 657 4
618 619 4
618 658 1
619 620 3
619 659 2
620 621 2
620 660 1
621 622 3
621 661 2
622 623 3
622 662 4
623 624 3
623 663 1
624 625 3
624 664 3
625 626 4
625 665 2
626 627 4
626 666 4
627 628 4
627 667 3
628 629 3
628 668 2
629 630 3
629 669 2
630 631 1
630 670 1
631 632 5
631 671 2
632 633 5
632 672 1
633 634 4
633 673 1
634 635 3
634 674 5
635 636 4
635 675 2
636 637 2
636 676 1
637 638 4
637 677 5
638 639 4
638 678 1
639 640 5
639 679 5
640 680 3
641 642 1
641 681 3
642 643 5
642 682 4
643 644 5
643 683 1
644 645 5
644 684 5
645 646 4
645 685 1
646 647 3
646 686 5
647 648 1
647 687 3
648 649 1
648 688 1
649 650 1
649 689 2
650 651 1
650 690 3
651 652 1
651 691 1
652 653 3
652 692 4
653 654 2
653 693 1
654 655 3
654 694 3
655 656 4
655 695 4
656 657 2
656 696 1
657 658 4
657 697 3
658 659 4
658 698 1
659 660 5
659 699 4
660 661 1
660 700 3
661 662 2
661 701 1
662 663 5
662 702 2
663 664 3
663 703 1
664 665 1
664 704 4
665 666 4
665 705 1
666 667 3
666 706 2
667 668 1
667 707 1
668 669 3
668 708 1
669 670 3
669 709 5
670 671 3
670 710 3
671 672 1
671 711 4
672 673 4
672 712 4
673 674 5
673 713 4
674 675 3
674 714 1
675 676 1
675 715 1
676 677 5
676 716 4
677 678 4
677 717 3
678 679 4
678 718 4
679 680 5
679 719 1
680 720 2
681 682 4
681 721 4
682 683 3
682 722 5
683 684 2
683 723 3
684 685 2
684 724 5
685 686 4
685 725 2
686 687 3
686 726 3
687 688 1
687 727 4
688 689 4
688 728 4
689 690 2
689 729 1
690 691 3
690 730 1
691 692 4
691 731 5
692 693 2
692 732 1
693 694 1
693 733 1
694 695 1
694 734 3
695 696 2
695 735 1
696 697 3
696 736 4
697 698 2
697 737 3
698 699 5
698 738 4
699 700 5
699 739 5
700 701 4
700 740 3
701 702 3
701 741 4
702 703 5
702 742 4
703 704 5
703 743 3
704 705 3
704 744 5
705 706 1
705 745 4
706 707 2
706 746 4
707 708 2
707 747 3
708 709 5
708 748 4
709 710 1
709 749 4
710 711 4
710 750 4
711 712 5
711 751 3
712 713 5
712 752 4
713 714 5
713 753 3
714 715 4
714 754 4
715 716 4
715 755 4
716 717 2
716 756 2
717 718 5
717 757 2
718 719 2
718 758 4
719 720 2
719 759 1
720 760 1
721 722 3
721 761 2
722 723 5
722 762 4
723 724 5
723 763 3
724 725 3
724 764 2
725 726 5
725 765 2
726 727 5
726 766 5
727 728 3
727 767 4
728 729 3
728 768 1
729 730 2
729 769 1
730 731 1
730 770 5
731 732 5
731 771 3
732 733 1
732 772 4
733 734 5
733 773 4
734 735 4
734 774 4
735 736 1
735 775 5
736 737 5
736 776 2
737 738 4
737 777 1
738 739 5
738 778 4
739 740 2
739 779 2
740 741 5
740 780 2
741 742 5
741 781 5
742 743 3
742 782 1
743 744 4
743 783 3
744 745 1
744 784 1
745 746 5
745 785 3
746 747 2
746 786 4
747 748 1
747 787 1
748 749 2
748 788 4
749 750 2
749 789 1
750 751 1
750 790 1
751 752 2
751 791 2
752 753 5
752 792 2
753 754 1
753 793 4
754 755 3
754 794 2
755 756 2
755 795 2
756 757 2
756 796 2
757 758 5
757 797 1
758 759 5
758 798 1
759 760 5
759 799 3
760 800 4
761 762 4
761 801 4
762 763 3
762 802 1
763 764 5
763 803 5
764 765 1
764 804 5
765 766 4
765 805 3
766 767 4
766 806 5
767 768 1
767 807 5
768 769 2
768 808 4
769 770 3
769 809 3
770 771 4
770 810 3
771 772 1
771 811 1
772 773 3
772 812 5
773 774 1
773 813 5
774 775 4
774 814 1
775 776 2
775 815 5
776 777 5
776 816 4
777 778 2
777 817 2
778 779 4
778 818 5
779 780 2
779 819 1
780 781 3
780 820 1
781 782 4
781 821 3
782 783 4
782 822 3
783 784 4
783 823 3
784 785 5
784 824 3
785 786 2
785 825 4
786 787 5
786 826 3
787 788 5
787 827 5
788 789 4
788 828 4
789 790 3
789 829 2
790 791 4
790 830 1
791 792 4
791 831 3
792 793 2
792 832 3
793 794 3
793 833 4
794 795 1
794 834 4
795 796 1
795 835 2
796 797 5
796 836 4
797 798 1
797 837 3
798 799 2
798 838 5
799 800 2
799 839 1
800 840 2
801 802 4
801 841 2
802 803 4
802 842 4
803 804 3
803 843 1
804 805 5
804 844 4
805 806 3
805 845 3
806 807 1
806 846 1
807 808 1
807 847 5
808 809 1
808 848 1
809 810 4
809 849 5
810 811 3
810 850 5
811 812 1
811 851 2
812 813 5
812 852 5
813 814 5
813 853 4
814 815 2
814 854 3
815 816 4
815 855 2
816 817 4
816 856 3
817 818 1
817 857 1
818 819 1
818 858 2
819 820 4
819 859 5
820 821 3
820 860 4
821 822 5
821 861 1
822 823 3
822 862 5
823 824 2
823 863 1
824 825 1
824 864 1
825 826 3
825 865 4
826 827 4
826 866 5
827 828 3
827 867 3
828 829 5
828 868 5
829 830 1
829 869 2
830 831 4
830 870 1
831 832 4
831 871 4
832 833 1
832 872 5
833 834 3
833 873 5
834 835 4
834 874 3
835 836 1
835 875 5
836 837 5
836 876 3
837 838 3
837 877 1
838 839 2
838 878 3
839 840 1
839 879 5
840 880 2
841 842 5
841 881 4
842 843 3
842 882 1
843 844 1
843 883 3
844 845 1
844 884 5
845 846 1
845 885 1
846 847 2
846 886 4
847 848 4
847 887 3
848 849 5
848 888 2
849 850 3
849 889 1
850 851 2
850 890 5
851 852 5
851 891 4
852 853 1
852 892 5
853 854 3
853 893 1
854 855 1
854 894 4
855 856 3
855 895 5
856 857 2
856 896 1
857 858 4
857 897 5
858 859 3
858 898 2
859 860 1
859 899 1
860 861 4
860 900 2
861 862 4
861 901 5
862 863 3
862 902 5
863 864 5
863 903 2
864 865 4
864 904 1
865 866 1
865 905 2
866 867 1
866 906 4
867 868 5
867 907 1
868 869 1
868 908 3
869 870 5
869 909 5
870 871 1
870 910 5
871 872 1
871 911 1
872 873 1
872 912 3
873 874 4
873 913 3
874 875 2
874 914 3
875 876 5
875 915 5
876 877 3
876 916 2
877 878 4
877 917 3
878 879 4
878 918 1
879 880 3
879 919 1
880 920 4
881 882 1
881 921 3
882 883 5
882 922 4
883 884 5
883 923 1
884 885 3
884 924 5
885 886 5
885 925 3
886 887 4
886 926 3
887 888 5
887 927 1
888 889 4
888 928 2
889 890 1
889 929 5
890 891 3
890 930 3
891 892 4
891 931 2
892 893 3
892 932 3
893 894 2
893 933 5
894 895 4
894 934 5
895 896 1
895 935 4
896 897 1
896 936 5
897 898 2
897 937 4
898 899 4
898 938 5
899 900 5
899 939 2
900 901 5
900 940 3
901 902 2
901 941 4
902 903 3
902 942 4
903 904 5
903 943 3
904 905 3
904 944 4
905 906 1
905 945 3
906 907 2
906 946 3
907 908 2
907 947 4
908 909 1
908 948 3
909 910 3
909 949 1
910 911 1
910 950 2
911 912 1
911 951 1
912 913 2
912 952 3
913 914 1
913 953 2
914 915 2
914 954 3
915 916 2
915 955 3
916 917 5
916 956 1
917 918 5
917 957 4
918 919 1
918 958 1
919 920 1
919 959 3
920 960 5
921 922 5
921 961 2
922 923 1
922 962 3
923 924 3
923 963 2
924 925 2
924 964 3
925 926 4
925 965 1
926 927 1
926 966 5
927 928 3
927 967 1
928 929 1
928 968 3
929 930 5
929 969 1
930 931 1
930 970 5
931 932 3
931 971 1
932 933 2
932 972 5
933 934 5
933 973 4
934 935 5
934 974 3
935 936 3
935 975 3
936 937 4
936 976 2
937 938 5
937 977 1
938 939 1
938 978 4
939 940 5
939 979 4
940 941 5
940 980 3
941 942 4
941 981 2
942 943 5
942 982 4
943 944 3
943 983 3
944 945 2
944 984 4
945 946 5
945 985 5
946 947 3
946 986 4
947 948 4
947 987 5
948 949 1
948 988 5
949 950 1
949 989 5
950 951 3
950 990 5
951 952 3
951 991 4
952 953 3
952 992 2
953 954 2
953 993 2
954 955 3
954 994 3
955 956 2
955 995 3
956 957 4
956 996 1
957 958 5
957 997 5
958 959 4
958 998 3
959 960 1
959 999 3
960 1000 1
961 962 5
961 1001 4
962 963 4
962 1002 2
963 964 3
963 1003 3
964 965 5
964 1004 4
965 966 2
965 1005 2
966 967 5
966 1006 4
967 968 4
967 1007 3
968 969 2
968 1008 3
969 970 5
969 1009 5
970 971 3
970 1010 5
971 972 1
971 1011 1
972 973 4
972 1012 3
973 974 2
973 1013 3
974 975 1
974 1014 2
975 976 3
975 1015 2
976 977 2
976 1016 2
977 978 4
977 1017 2
978 979 5
978 1018 1
979 980 3
979 1019 5
980 981 3
980 1020 2
981 982 1
981 1021 2
982 983 2
982 1022 4
983 984 2
983 1023 5
984 985 3
984 1024 1
985 986 5
985 1025 1
986 987 1
986 1026 4
987 988 2
987 1027 4
988 989 3
988 1028 1
989 990 4
989 1029 1
990 991 3
990 1030 2
991 992 5
991 1031 5
992 993 2
992 1032 2
993 994 2
993 1033 1
994 995 2
994 1034 1
995 996 1
995 1035 1
996 997 1
996 1036 1
997 998 4
997 1037 1
998 999 2
998 1038 2
999 1000 2
999 1039 3
1000 1040 5
1001 1002 2
1001 1041 5
1002 1003 5
1002 1042 4
1003 1004 4
1003 1043 5
1004 1005 3
1004 1044 4
1005 1006 1
1005 1045 4
1006 1007 4
1006 1046 2
1007 1008 5
1007 1047 1
1008 1009 2
1008 1048 5
1009 1010 4
1009 1049 5
1010 1011 4
1010 1050 2
1011 1012 2
1011 1051 4
1012 1013 3
1012 1052 3
1013 1014 5
1013 1053 5
1014 1015 1
1014 1054 2
1015 1016 5
1015 1055 5
1016 1017 2
1016 1056 4
1017 1018 4
1017 1057 3
1018 1019 4
1018 1058 3
1019 1020 1
1019 1059 1
1020 1021 1
1020 1060 2
1021 1022 2
1021 1061 1
1022 1023 3
1022 1062 2
1023 1024 4
1023 1063 3
1024 1025 5
1024 1064 5
1025 1026 1
1025 1065 4
1026 1027 3
1026 1066 3
1027 1028 5
1027 1067 5
1028 1029 4
1028 1068 4
1029 1030 5
1029 1069 4
1030 1031 4
1030 1070 2
1031 1032 5
1031 1071 5
1032 1033 1
1032 1072 3
1033 1034 1
1033 1073 5
1034 1035 3
1034 1074 1
1035 1036 1
1035 1075 3
1036 1037 3
1036 1076 5
1037 1038 5
1037 1077 1
1038 1039 1
1038 1078 5
1039 1040 4
1039 1079 2
1040 1080 5
1041 1042 3
1041 1081 2
1042 1043 2
1042 1082 5
1043 1044 1
1043 1083 2
1044 1045 3
1044 1084 4
1045 1046 3
1045 1085 4
1046 1047 2
1046 1086 5
1047 1048 1
1047 1087 3
1048 1049 3
1048 1088 1
1049 1050 5
1049 1089 4
1050 1051 5
1050 1090 4
1051 1052 2
1051 1091 5
1052 1053 4
1052 1092 5
1053 1054 2
1053 1093 4
1054 1055 2
1054 1094 4
1055 1056 3
1055 1095 1
1056 1057 3
1056 1096 3
1057 1058 2
1057 1097 3
1058 1059 2
1058 1098 3
1059 1060 2
1059 1099 4
1060 1061 2
1060 1100 5
1061 1062 1
1061 1101 4
1062 1063 2
1062 1102 3
1063 1064 5
1063 1103 3
1064 1065 4
1064 1104 5
1065 1066 4
1065 1105 4
1066 1067 5
1066 1106 4
1067 1068 2
1067 1107 2
1068 1069 3
1068 1108 5
1069 1070 3
1069 1109 4
1070 1071 4
1070 1110 1
1071 1072 4
1071 1111 2
1072 1073 1
1072 1112 3
1073 1074 4
1073 1113 1
1074 1075 4
1074 1114 2
1075 1076 2
1075 1115 5
1076 1077 3
1076 1116 4
1077 1078 1
1077 1117 3
1078 1079 1
1078 1118 1
1079 1080 2
1079 1119 4
1080 1120 5
1081 1082 3
1081 1121 5
1082 1083 5
1082 1122 4
1083 1084 1
1083 1123 5
1084 1085 1
1084 1124 4
1085 1086 3
1085 1125 1
1086 1087 2
1086 1126 5
1087 1088 1
1087 1127 2
1088 1089 2
1088 1128 2
1089 1090 3
1089 1129 1
1090 1091 2
1090 1130 5
1091 1092 1
1091 1131 4
1092 1093 2
1092 1132 5
1093 1094 2
1093 1133 2
1094 1095 4
1094 1134 1
1095 1096 4
1095 1135 2
1096 1097 4
1096 1136 5
1097 1098 2
1097 1137 5
1098 1099 4
1098 1138 2
1099 1100 4
1099 1139 4
1100 1101 5
1100 1140 4
1101 1102 5
1101 1141 5
1102 1103 4
1102 1142 1
1103 1104 5
1103 1143 4
1104 1105 5
1104 1144 3
1105 1106 3
1105 1145 4
1106 1107 3
1106 1146 1
1107 1108 5
1107 1147 4
1108 1109 4
1108 1148 2
1109 1110 5
1109 1149 2
1110 1111 1
1110 1150 3
1111 1112 1
1111 1151 5
1112 1113 2
1112 1152 3
1113 1114 5
1113 1153 2
1114 1115 4
1114 1154 4
1115 1116 2
1115 1155 5
1116 1117 2
1116 1156 1
1117 1118 1
1117 1157 4
1118 1119 1
1118 1158 1
1119 1120 2
1119 1159 1
1120 1160 4
1121 1122 3
1121 1161 1
1122 1123 4
1122 1162 2
1123 1124 1
1123 1163 1
1124 1125 4
1124 1164 1
1125 1126 2
1125 1165 2
1126 1127 5
1126 1166 2
1127 1128 3
1127 1167 3
1128 1129 3
1128 1168 2
1129 1130 1
1129 1169 2
1130 1131 1
1130 1170 1
1131 1132 2
1131 1171 2
1132 1133 1
1132 1172 2
1133 1134 1
1133 1173 1
1134 1135 1
1134 1174 3
1135 1136 4
1135 1175 3
1136 1137 5
1136 1176 3
1137 1138 2
1137 1177 1
1138 1139 5
1138 1178 4
1139 1140 2
1139 1179 2
1140 1141 5
1140 1180 4
1141 1142 1
1141 1181 5
1142 1143 3
1142 1182 1
1143 1144 4
1143 1183 4
1144 1145 2
1144 1184 5
1145 1146 4
1145 1185 5
1146 1147 1
1146 1186 3
1147 1148 4
1147 1187 5
1148 1149 2
1148 1188 5
1149 1150 5
1149 1189 5
1150 1151 4
1150 1190 3
1151 1152 3
1151 1191 2
1152 1153 1
1152 1192 3
1153 1154 4
1153 1193 1
1154 1155 3
1154 1194 4
1155 1156 3
1155 1195 5
1156 1157 4
1156 1196 4
1157 1158 1
1157 1197 5
1158 1159 2
1158 1198 4
1159 1160 5
1159 1199 1
1160 1200 5
1161 1162 5
1161 1201 2
1162 1163 5
1162 1202 1
1163 1164 4
1163 1203 2
1164 1165 5
1164 1204 2
1165 1166 5
1165 1205 4
1166 1167 1
1166 1206 5
1167 1168 3
1167 1207 4
1168 1169 3
1168 1208 5
1169 1170 5
1169 1209 4
1170 1171 4
1170 1210 3
1171 1172 1
1171 1211 3
1172 1173 5
1172 1212 1
1173 1174 2
1173 1213 2
1174 1175 2
1174 1214 5
1175 1176 5
1175 1215 4
1176 1177 2
1176 1216 4
1177 1178 1
1177 1217 3
1178 1179 5
1178 1218 1
1179 1180 4
1179 1219 5
1180 1181 1
1180 1220 5
1181 1182 3
1181 1221 4
1182 1183 5
1182 1222 3
1183 1184 4
1183 1223 2
1184 1185 5
1184 1224 1
1185 1186 4
1185 1225 1
1186 1187 4
1186 1226 3
1187 1188 5
1187 1227 1
1188 1189 5
1188 1228 4
1189 1190 3
1189 1229 2
1190 1191 4
1190 1230 2
1191 1192 4
1191 1231 4
1192 1193 4
1192 1232 4
1193 1194 3
1193 1233 1
1194 1195 4
1194 1234 2
1195 1196 2
1195 1235 1
1196 1197 2
1196 1236 5
1197 1198 4
1197 1237 2
1198 1199 3
1198 1238 1
1199 1200 5
1199 1239 5
1200 1240 4
1201 1202 5
1201 1241 3
1202 1203 4
1202 1242 3
1203 1204 4
1203 1243 4
1204 1205 1
1204 1244 2
1205 1206 1
1205 1245 5
1206 1207 5
1206 1246 3
1207 1208 2
1207 1247 1
1208 1209 5
1208 1248 3
1209 1210 1
1209 1249 3
1210 1211 5
1210 1250 4
1211 1212 1
1211 1251 2
1212 1213 1
1212 1252 1
1213 1214 2
1213 1253 3
1214 1215 1
1214 1254 1
1215 1216 4
1215 1255 4
1216 1217 1
1216 1256 4
1217 1218 1
1217 1257 3
1218 1219 3
1218 1258 1
1219 1220 5
1219 1259 5
1220 1221 4
1220 1260 4
1221 1222 3
1221 1261 4
1222 1223 5
1222 1262 3
1223 1224 2
1223 1263 4
1224 1225 4
1224 1264 4
1225 1226 3
1225 1265 4
1226 1227 3
1226 1266 1
1227 1228 2
1227 1267 1
1228 1229 2
1228 1268 5
1229 1230 4
1229 1269 2
1230 1231 1
1230 1270 5
1231 1232 4
1231 1271 1
1232 1233 1
1232 1272 2
1233 1234 2
1233 1273 1
1234 1235 5
1234 1274 5
1235 1236 2
1235 1275 3
1236 1237 1
1236 1276 1
1237 1238 2
1237 1277 5
1238 1239 3
1238 1278 4
1239 1240 4
1239 1279 4
1240 1280 2
1241 1242 4
1241 1281 2
1242 1243 3
1242 1282 3
1243 1244 4
1243 1283 5
1244 1245 1
1244 1284 5
1245 1246 4
1245 1285 3
1246 1247 2
1246 1286 3
1247 1248 3
1247 1287 3
1248 1249 3
1248 1288 1
1249 1250 1
1249 1289 2
1250 1251 3
1250 1290 2
1251 1252 1
1251 1291 5
1252 1253 4
1252 1292 1
1253 1254 3
1253 1293 5
1254 1255 3
1254 1294 1
1255 1256 3
1255 1295 2
1256 1257 3
1256 1296 1
1257 1258 3
1257 1297 4
1258 1259 5
1258 1298 5
1259 1260 5
1259 1299 3
1260 1261 4
1260 1300 1
1261 1262 2
1261 1301 3
1262 1263 4
1262 1302 1
1263 1264 4
1263 1303 4
1264 1265 4
1264 1304 4
1265 1266 3
1265 1305 1
1266 1267 3
1266 1306 4
1267 1268 1
1267 1307 4
1268 1269 1
1268 1308 1
1269 1270 2
1269 1309 3
1270 1271 1
1270 1310 1
1271 1272 5
1271 1311 1
1272 1273 1
1272 1312 1
1273 1274 3
1273 1313 4
1274 1275 5
1274 1314 1
1275 1276 1
1275 1315 4
1276 1277 2
1276 1316 1
1277 1278 4
1277 1317 4
1278 1279 5
1278 1318 1
1279 1280 3
1279 1319 3
1280 1320 5
1281 1282 1
1281 1321 2
1282 1283 1
1282 1322 4
1283 1284 5
1283 1323 1
1284 1285 5
1284 1324 1
1285 1286 5
1285 1325 5
1286 1287 1
1286 1326 2
1287 1288 3
1287 1327 3
1288 1289 2
1288 1328 5
1289 1290 1
1289 1329 1
1290 1291 4
1290 1330 4
1291 1292 5
1291 1331 3
1292 1293 2
1292 1332 4
1293 1294 4
1293 1333 5
1294 1295 1
1294 1334 5
1295 1296 3
1295 1335 3
1296 1297 1
1296 1336 2
1297 1298 5
1297 1337 4
1298 1299 3
1298 1338 4
1299 1300 5
1299 1339 2
1300 1301 3
1300 1340 2
1301 1302 1
1301 1341 3
1302 1303 2
1302 1342 4
1303 1304 4
1303 1343 2
1304 1305 1
1304 1344 4
1305 1306 5
1305 1345 2
1306 1307 3
1306 1346 1
1307 1308 1
1307 1347 3
1308 1309 2
1308 1348 5
1309 1310 2
1309 1349 2
1310 1311 2
1310 1350 4
1311 1312 5
1311 1351 2
1312 1313 2
1312 1352 1
1313 1314 1
1313 1353 5
1314 1315 1
1314 1354 5
1315 1316 5
1315 1355 2
1316 1317 5
1316 1356 2
1317 1318 5
1317 1357 4
1318 1319 3
1318 1358 3
1319 1320 2
1319 1359 3
1320 1360 5
1321 1322 2
1321 1361 4
1322 1323 3
1322 1362 1
1323 1324 4
1323 1363 1
1324 1325 1
1324 1364 3
1325 1326 4
1325 1365 5
1326 1327 5
1326 1366 4
1327 1328 5
1327 1367 2
1328 1329 4
1328 1368 2
1329 1330 4
1329 1369 1
1330 1331 2
1330 1370 3
1331 1332 2
1331 1371 2
1332 1333 5
1332 1372 1
1333 1334 2
1333 1373 5
1334 1335 2
1334 1374 3
1335 1336 5
1335 1375 4
1336 1337 1
1336 1376 5
1337 1338 2
1337 1377 5
1338 1339 2
1338 1378 2
1339 1340 1
1339 1379 2
1340 1341 5
1340 1380 2
1341 1342 2
1341 1381 1
1342 1343 1
1342 1382 2
1343 1344 5
1343 1383 5
1344 1345 2
1344 1384 1
1345 1346 4
1345 1385 4
1346 1347 5
1346 1386 1
1347 1348 2
1347 1387 3
1348 1349 3
1348 1388 2
1349 1350 3
1349 1389 3
1350 1351 5
1350 1390 1
1351 1352 2
1351 1391 1
1352 1353 2
1352 1392 2
1353 1354 5
1353 1393 1
1354 1355 5
1354 1394 2
1355 1356 1
1355 1395 2
1356 1357 1
1356 1396 4
1357 1358 1
1357 1397 1
1358 1359 5
1358 1398 5
1359 1360 3
1359 1399 4
1360 1400 3
1361 1362 2
1361 1401 5
1362 1363 1
1362 1402 5
1363 1364 5
1363 1403 2
1364 1365 4
1364 1404 5
1365 1366 1
1365 1405 1
1366 1367 4
1366 1406 4
1367 1368 2
1367 1407 2
1368 1369 3
1368 1408 3
1369 1370 1
1369 1409 2
1370 1371 2
1370 1410 4
1371 1372 4
1371 1411 1
1372 1373 5
1372 1412 1
1373 1374 2
1373 1413 1
1374 1375 5
1374 1414 2
1375 1376 3
1375 1415 1
1376 1377 5
1376 1416 2
1377 1378 4
1377 1417 2
1378 1379 2
1378 1418 4
1379 1380 2
1379 1419 1
1380 1381 5
1380 1420 1
1381 1382 2
1381 1421 1
1382 1383 4
1382 1422 1
1383 1384 4
1383 1423 3
1384 1385 3
1384 1424 3
1385 1386 3
1385 1425 2
1386 1387 2
1386 1426 1
1387 1388 5
1387 1427 2
1388 1389 1
1388 1428 1
1389 1390 3
1389 1429 3
1390 1391 4
1390 1430 2
1391 1392 1
1391 1431 3
1392 1393 1
1392 1432 1
1393 1394 1
1393 1433 2
1394 1395 2
1394 1434 3
1395 1396 4
1395 1435 3
1396 1397 4
1396 1436 2
1397 1398 5
1397 1437 5
1398 1399 4
1398 1438 3
1399 1400 2
1399 1439 2
1400 1440 2
1401 1402 5
1401 1441 3
1402 1403 1
1402 1442 5
1403 1404 1
1403 1443 4
1404 1405 3
1404 1444 2
1405 1406 4
1405 1445 4
1406 1407 4
1406 1446 3
1407 1408 4
1407 1447 2
1408 1409 5
1408 1448 1
1409 1410 1
1409 1449 4
1410 1411 5
1410 1450 4
1411 1412 3
1411 1451 4
1412 1413 5
1412 1452 5
1413 1414 2
1413 1453 3
1414 1415 1
1414 1454 1
1415 1416 4
1415 1455 2
1416 1417 1
1416 1456 2
1417 1418 5
1417 1457 3
1418 1419 5
1418 1458 1
1419 1420 2
1419 1459 1
1420 1421 4
1420 1460 2
1421 1422 5
1421 1461 5
1422 1423 2
1422 1462 4
1423 1424 2
1423 1463 1
1424 1425 5
1424 1464 2
1425 1426 1
1425 1465 2
1426 1427 1
1426 1466 4
1427 1428 5
1427 1467 2
1428 1429 2
1428 1468 3
1429 1430 4
1429 1469 2
1430 1431 5
1430 1470 1
1431 1432 4
1431 1471 1
1432 1433 2
1432 1472 3
1433 1434 2
1433 1473 4
1434 1435 5
1434 1474 4
1435 1436 4
1435 1475 3
1436 1437 2
1436 1476 4
1437 1438 2
1437 1477 2
1438 1439 4
1438 1478 3
1439 1440 4
1439 1479 1
1440 1480 4
1441 1442 1
1441 1481 5
1442 1443 1
1442 1482 1
1443 1444 5
1443 1483 5
1444 1445 1
1444 1484 3
1445 1446 1
1445 1485 1
1446 1447 2
1446 1486 3
1447 1448 5
1447 1487 3
1448 1449 5
1448 1488 1
1449 1450 3
1449 1489 2
1450 1451 3
1450 1490 2
1451 1452 4
1451 1491 3
1452 1453 4
1452 1492 5
1453 1454 1
1453 1493 2
1454 1455 3
1454 1494 4
1455 1456 2
1455 1495 2
1456 1457 1
1456 1496 5
1457 1458 5
1457 1497 2
1458 1459 2
1458 1498 2
1459 1460 5
1459 1499 1
1460 1461 4
1460 1500 4
1461 1462 3
1461 1501 2
1462 1463 3
1462 1502 4
1463 1464 1
1463 1503 3
1464 1465 5
1464 1504 2
1465 1466 5
1465 1505 5
1466 1467 3
1466 1506 2
1467 1468 3
1467 1507 1
1468 1469 2
1468 1508 3
1469 1470 2
1469 1509 5
1470 1471 1
1470 1510 5
1471 1472 4
1471 1511 1
1472 1473 1
1472 1512 1
1473 1474 2
1473 1513 4
1474 1475 1
1474 1514 5
1475 1476 1
1475 1515 5
1476 1477 1
1476 1516 2
1477 1478 3
1477 1517 4
1478 1479 3
1478 1518 5
1479 1480 3
1479 1519 1
1480 1520 5
1481 1482 4
1481 1521 4
1482 1483 4
1482 1522 1
1483 1484 2
1483 1523 4
1484 1485 1
1484 1524 1
1485 1486 4
1485 1525 5
1486 1487 3
1486 1526 3
1487 1488 2
1487 1527 3
1488 1489 5
1488 1528 4
1489 1490 3
1489 1529 2
1490 1491 3
1490 1530 1
1491 1492 3
1491 1531 3
1492 1493 1
1492 1532 4
1493 1494 4
1493 1533 4
1494 1495 2
1494 1534 2
1495 1496 4
1495 1535 2
1496 1497 2
1496 1536 3
1497 1498 4
1497 1537 3
1498 1499 1
1498 1538 3
1499 1500 3
1499 1539 1
1500 1501 2
1500 1540 2
1501 1502 2
1501 1541 2
1502 1503 1
1502 1542 4
1503 1504 1
1503 1543 2
1504 1505 4
1504 1544 4
1505 1506 3
1505 1545 2
1506 1507 1
1506 1546 5
1507 1508 4
1507 1547 2
1508 1509 1
1508 1548 1
1509 1510 5
1509 1549 3
1510 1511 4
1510 1550 3
1511 1512 4
1511 1551 1
1512 1513 1
1512 1552 1
1513 1514 4
1513 1553 2
1514 1515 1
1514 1554 4
1515 1516 4
1515 1555 4
1516 1517 2
1516 1556 5
1517 1518 4
1517 1557 2
1518 1519 5
1518 1558 4
1519 1520 4
1519 1559 5
1520 1560 3
1521 1522 5
1521 1561 1
1522 1523 4
1522 1562 1
1523 1524 5
1523 1563 1
1524 1525 5
1524 1564 2
1525 1526 5
1525 1565 1
1526 1527 2
1526 1566 5
1527 1528 5
1527 1567 2
1528 1529 3
1528 1568 4
1529 1530 4
1529 1569 3
1530 1531 1
1530 1570 5
1531 1532 2
1531 1571 1
1532 1533 5
1532 1572 2
1533 1534 4
1533 1573 1
1534 1535 5
1534 1574 4
1535 1536 2
1535 1575 3
1536 1537 4
1536 1576 4
1537 1538 3
1537 1577 2
1538 1539 1
1538 1578 3
1539 1540 1
1539 1579 1
1540 1541 2
1540 1580 4
1541 1542 2
1541 1581 2
1542 1543 5
1542 1582 1
1543 1544 3
1543 1583 1
1544 1545 2
1544 1584 3
1545 1546 1
1545 1585 1
1546 1547 4
1546 1586 1
1547 1548 4
1547 1587 4
1548 1549 1
1548 1588 5
1549 1550 2
1549 1589 3
1550 1551 4
1550 1590 4
1551 1552 2
1551 1591 2
1552 1553 2
1552 1592 5
1553 1554 3
1553 1593 2
1554 1555 3
1554 1594 2
1555 1556 4
1555 1595 5
1556 1557 5
1556 1596 5
1557 1558 1
1557 1597 5
1558 1559 5
1558 1598 3
1559 1560 5
1559 1599 5
1560 1600 1
1561 1562 2
1562 1563 3
1563 1564 5
1564 1565 1
1565 1566 3
1566 1567 4
1567 1568 4
1568 1569 2
1569 1570 2
1570 1571 5
1571 1572 4
1572 1573 1
1573 1574 1
1574 1575 4
1575 1576 3
1576 1577 5
1577 1578 3
1578 1579 2
1579 1580 5
1580 1581 3
1581 1582 3
1582 1583 5
1583 1584 2
1584 1585 3
1585 1586 2
1586 1587 2
1587 1588 4
1588 1589 5
1589 1590 5
1590 1591 2
1591 1592 4
1592 1593 1
1593 1594 2
1594 1595 2
1595 1596 1
1596 1597 4
1597 1598 5
1598 1599 4
1599 1600 4
